objective value:                                12953
t_x_1                                               1 	(obj:33)
t_x_2                                               1 	(obj:28)
t_x_4                                               1 	(obj:0)
t_x_5                                               1 	(obj:52)
t_x_6                                               1 	(obj:22)
t_x_7                                               1 	(obj:49)
t_x_8                                               1 	(obj:19)
t_x_12                                              1 	(obj:6)
t_x_15                                              1 	(obj:20)
t_x_23                                              1 	(obj:27)
t_x_30                                              1 	(obj:52)
t_x_31                                              1 	(obj:13)
t_x_32                                              1 	(obj:20)
t_x_34                                              1 	(obj:9)
t_x_38                                              1 	(obj:5)
t_x_39                                              1 	(obj:7)
t_x_40                                              1 	(obj:33)
t_x_42                                              1 	(obj:48)
t_x_45                                              1 	(obj:13)
t_x_46                                              1 	(obj:13)
t_x_49                                              1 	(obj:24)
t_x_51                                              1 	(obj:23)
t_x_54                                              1 	(obj:37)
t_x_56                                              1 	(obj:28)
t_x_60                                              1 	(obj:11)
t_x_68                                              1 	(obj:29)
t_x_70                                              1 	(obj:48)
t_x_75                                              1 	(obj:77)
t_x_77                                              1 	(obj:13)
t_x_78                                              1 	(obj:41)
t_x_80                                              1 	(obj:0)
t_x_81                                              1 	(obj:15)
t_x_83                                              1 	(obj:39)
t_x_85                                              1 	(obj:22)
t_x_90                                              1 	(obj:8)
t_x_91                                              1 	(obj:2)
t_x_93                                              1 	(obj:3)
t_x_98                                              1 	(obj:1)
t_x_99                                              1 	(obj:4)
t_x_100                                             1 	(obj:15)
t_x_105                                             1 	(obj:33)
t_x_107                                             1 	(obj:8)
t_x_108                                             1 	(obj:27)
t_x_110                                             1 	(obj:30)
t_x_119                                             1 	(obj:5)
t_x_121                                             1 	(obj:26)
t_x_123                                             1 	(obj:12)
t_x_125                                             1 	(obj:32)
t_x_128                                             1 	(obj:28)
t_x_129                                             1 	(obj:30)
t_x_130                                             1 	(obj:32)
t_x_133                                             1 	(obj:22)
t_x_135                                             1 	(obj:12)
t_x_137                                             1 	(obj:9)
t_x_140                                             1 	(obj:13)
t_x_143                                             1 	(obj:51)
t_x_148                                             1 	(obj:4)
t_x_149                                             1 	(obj:3)
t_x_150                                             1 	(obj:16)
t_x_153                                             1 	(obj:0)
t_x_154                                             1 	(obj:3)
t_x_158                                             1 	(obj:47)
t_x_160                                             1 	(obj:17)
t_x_161                                             1 	(obj:66)
t_x_162                                             1 	(obj:5)
t_x_164                                             1 	(obj:22)
t_x_165                                             1 	(obj:18)
t_x_166                                             1 	(obj:31)
t_x_167                                             1 	(obj:24)
t_x_169                                             1 	(obj:16)
t_x_179                                             1 	(obj:13)
t_x_180                                             1 	(obj:34)
t_x_181                                             1 	(obj:5)
t_x_190                                             1 	(obj:4)
t_x_192                                             1 	(obj:5)
t_x_194                                             1 	(obj:43)
t_x_199                                             1 	(obj:26)
t_x_200                                             1 	(obj:32)
t_x_202                                             1 	(obj:11)
t_x_204                                             1 	(obj:9)
t_x_205                                             1 	(obj:2)
t_x_212                                             1 	(obj:32)
t_x_213                                             1 	(obj:19)
t_x_217                                             1 	(obj:29)
t_x_219                                             1 	(obj:43)
t_x_222                                             1 	(obj:81)
t_x_223                                             1 	(obj:24)
t_x_224                                             1 	(obj:2)
t_x_233                                             1 	(obj:1)
t_x_237                                             1 	(obj:86)
t_x_238                                             1 	(obj:59)
t_x_239                                             1 	(obj:14)
t_x_244                                             1 	(obj:9)
t_x_245                                             1 	(obj:10)
t_x_246                                             1 	(obj:5)
t_x_247                                             1 	(obj:33)
t_x_248                                             1 	(obj:24)
t_x_249                                             1 	(obj:57)
t_x_252                                             1 	(obj:41)
t_x_257                                             1 	(obj:17)
t_x_260                                             1 	(obj:17)
t_x_261                                             1 	(obj:15)
t_x_266                                             1 	(obj:8)
t_x_271                                             1 	(obj:27)
t_x_272                                             1 	(obj:7)
t_x_273                                             1 	(obj:18)
t_x_281                                             1 	(obj:8)
t_x_286                                             1 	(obj:1)
t_x_291                                             1 	(obj:1)
t_x_294                                             1 	(obj:15)
t_x_295                                             1 	(obj:0)
t_x_298                                             1 	(obj:1)
t_x_299                                             1 	(obj:9)
t_x_306                                             1 	(obj:16)
t_x_311                                             1 	(obj:24)
t_x_326                                             1 	(obj:40)
t_x_329                                             1 	(obj:44)
t_x_330                                             1 	(obj:21)
t_x_338                                             1 	(obj:17)
t_x_339                                             1 	(obj:8)
t_x_345                                             1 	(obj:15)
t_x_346                                             1 	(obj:30)
t_x_349                                             1 	(obj:0)
t_x_353                                             1 	(obj:13)
t_x_359                                             1 	(obj:5)
t_x_360                                             1 	(obj:16)
t_x_363                                             1 	(obj:20)
t_x_366                                             1 	(obj:28)
t_x_386                                             1 	(obj:13)
t_x_390                                             1 	(obj:4)
t_x_393                                             1 	(obj:17)
t_x_406                                             1 	(obj:26)
t_x_410                                             1 	(obj:11)
t_x_416                                             1 	(obj:48)
t_x_417                                             1 	(obj:55)
t_x_419                                             1 	(obj:22)
t_x_422                                             1 	(obj:13)
t_x_425                                             1 	(obj:32)
t_x_435                                             1 	(obj:30)
t_x_439                                             1 	(obj:11)
t_x_451                                             1 	(obj:16)
t_x_453                                             1 	(obj:37)
t_x_454                                             1 	(obj:17)
t_x_457                                             1 	(obj:14)
t_x_460                                             1 	(obj:24)
t_x_461                                             1 	(obj:23)
t_x_462                                             1 	(obj:34)
t_x_463                                             1 	(obj:18)
t_x_464                                             1 	(obj:22)
t_x_468                                             1 	(obj:24)
t_x_470                                             1 	(obj:23)
t_x_477                                             1 	(obj:19)
t_x_486                                             1 	(obj:5)
t_x_494                                             1 	(obj:58)
t_x_495                                             1 	(obj:49)
t_x_496                                             1 	(obj:10)
t_x_497                                             1 	(obj:44)
t_x_499                                             1 	(obj:45)
t_x_504                                             1 	(obj:29)
t_x_505                                             1 	(obj:21)
t_x_507                                             1 	(obj:21)
t_x_508                                             1 	(obj:4)
t_x_512                                             1 	(obj:35)
t_x_527                                             1 	(obj:17)
t_x_528                                             1 	(obj:0)
t_x_531                                             1 	(obj:4)
t_x_535                                             1 	(obj:20)
t_x_542                                             1 	(obj:2)
t_x_549                                             1 	(obj:2)
t_x_552                                             1 	(obj:23)
t_x_555                                             1 	(obj:3)
t_x_559                                             1 	(obj:15)
t_x_562                                             1 	(obj:21)
t_x_564                                             1 	(obj:47)
t_x_565                                             1 	(obj:1)
t_x_566                                             1 	(obj:17)
t_x_568                                             1 	(obj:16)
t_x_572                                             1 	(obj:10)
t_x_574                                             1 	(obj:13)
t_x_576                                             1 	(obj:8)
t_x_581                                             1 	(obj:40)
t_x_582                                             1 	(obj:9)
t_x_583                                             1 	(obj:47)
t_x_589                                             1 	(obj:22)
t_x_592                                             1 	(obj:47)
t_x_593                                             1 	(obj:21)
t_x_594                                             1 	(obj:6)
t_x_595                                             1 	(obj:37)
t_x_596                                             1 	(obj:35)
t_x_602                                             1 	(obj:18)
t_x_607                                             1 	(obj:32)
t_x_609                                             1 	(obj:18)
t_x_611                                             1 	(obj:13)
t_x_615                                             1 	(obj:24)
t_x_616                                             1 	(obj:20)
t_x_617                                             1 	(obj:23)
t_x_620                                             1 	(obj:9)
t_x_621                                             1 	(obj:38)
t_x_624                                             1 	(obj:11)
t_x_627                                             1 	(obj:31)
t_x_631                                             1 	(obj:11)
t_x_632                                             1 	(obj:28)
t_x_640                                             1 	(obj:0)
t_x_641                                             1 	(obj:31)
t_x_643                                             1 	(obj:10)
t_x_646                                             1 	(obj:33)
t_x_648                                             1 	(obj:25)
t_x_651                                             1 	(obj:23)
t_x_652                                             1 	(obj:19)
t_x_653                                             1 	(obj:27)
t_x_654                                             1 	(obj:3)
t_x_659                                             1 	(obj:21)
t_x_662                                             1 	(obj:53)
t_x_664                                             1 	(obj:19)
t_x_667                                             1 	(obj:18)
t_x_668                                             1 	(obj:45)
t_x_674                                             1 	(obj:19)
t_x_678                                             1 	(obj:45)
t_x_679                                             1 	(obj:2)
t_x_682                                             1 	(obj:15)
t_x_687                                             1 	(obj:20)
t_x_688                                             1 	(obj:9)
t_x_692                                             1 	(obj:0)
t_x_693                                             1 	(obj:28)
t_x_695                                             1 	(obj:39)
t_x_702                                             1 	(obj:53)
t_x_704                                             1 	(obj:34)
t_x_709                                             1 	(obj:0)
t_x_711                                             1 	(obj:32)
t_x_716                                             1 	(obj:24)
t_x_718                                             1 	(obj:3)
t_x_725                                             1 	(obj:3)
t_x_729                                             1 	(obj:19)
t_x_731                                             1 	(obj:27)
t_x_734                                             1 	(obj:5)
t_x_744                                             1 	(obj:36)
t_x_746                                             1 	(obj:20)
t_x_752                                             1 	(obj:21)
t_x_755                                             1 	(obj:16)
t_x_758                                             1 	(obj:19)
t_x_761                                             1 	(obj:26)
t_x_767                                             1 	(obj:26)
t_x_769                                             1 	(obj:14)
t_x_785                                             1 	(obj:27)
t_x_789                                             1 	(obj:3)
t_x_790                                             1 	(obj:39)
t_x_795                                             1 	(obj:5)
t_x_798                                             1 	(obj:26)
t_x_802                                             1 	(obj:10)
t_x_804                                             1 	(obj:0)
t_x_811                                             1 	(obj:1)
t_x_822                                             1 	(obj:51)
t_x_824                                             1 	(obj:1)
t_x_825                                             1 	(obj:0)
t_x_827                                             1 	(obj:10)
t_x_828                                             1 	(obj:19)
t_x_831                                             1 	(obj:18)
t_x_835                                             1 	(obj:23)
t_x_841                                             1 	(obj:75)
t_x_848                                             1 	(obj:3)
t_x_852                                             1 	(obj:2)
t_x_857                                             1 	(obj:45)
t_x_862                                             1 	(obj:5)
t_x_864                                             1 	(obj:47)
t_x_867                                             1 	(obj:18)
t_x_869                                             1 	(obj:19)
t_x_871                                             1 	(obj:7)
t_x_872                                             1 	(obj:1)
t_x_883                                             1 	(obj:17)
t_x_884                                             1 	(obj:21)
t_x_885                                             1 	(obj:25)
t_x_887                                             1 	(obj:15)
t_x_888                                             1 	(obj:51)
t_x_889                                             1 	(obj:10)
t_x_896                                             1 	(obj:7)
t_x_897                                             1 	(obj:48)
t_x_901                                             1 	(obj:6)
t_x_904                                             1 	(obj:12)
t_x_905                                             1 	(obj:30)
t_x_906                                             1 	(obj:2)
t_x_908                                             1 	(obj:2)
t_x_909                                             1 	(obj:2)
t_x_910                                             1 	(obj:25)
t_x_913                                             1 	(obj:10)
t_x_914                                             1 	(obj:48)
t_x_916                                             1 	(obj:62)
t_x_922                                             1 	(obj:43)
t_x_923                                             1 	(obj:2)
t_x_924                                             1 	(obj:6)
t_x_925                                             1 	(obj:53)
t_x_931                                             1 	(obj:9)
t_x_937                                             1 	(obj:13)
t_x_938                                             1 	(obj:4)
t_x_946                                             1 	(obj:22)
t_x_947                                             1 	(obj:23)
t_x_951                                             1 	(obj:15)
t_x_952                                             1 	(obj:26)
t_x_953                                             1 	(obj:11)
t_x_954                                             1 	(obj:3)
t_x_955                                             1 	(obj:19)
t_x_957                                             1 	(obj:1)
t_x_958                                             1 	(obj:3)
t_x_959                                             1 	(obj:44)
t_x_962                                             1 	(obj:46)
t_x_963                                             1 	(obj:4)
t_x_967                                             1 	(obj:34)
t_x_971                                             1 	(obj:5)
t_x_973                                             1 	(obj:3)
t_x_974                                             1 	(obj:5)
t_x_976                                             1 	(obj:7)
t_x_977                                             1 	(obj:10)
t_x_983                                             1 	(obj:30)
t_x_987                                             1 	(obj:20)
t_x_996                                             1 	(obj:12)
t_x_999                                             1 	(obj:13)
t_x_1000                                            1 	(obj:14)
t_x_1003                                            1 	(obj:32)
t_x_1011                                            1 	(obj:15)
t_x_1016                                            1 	(obj:69)
t_x_1018                                            1 	(obj:29)
t_x_1024                                            1 	(obj:18)
t_x_1029                                            1 	(obj:18)
t_x_1031                                            1 	(obj:3)
t_x_1034                                            1 	(obj:26)
t_x_1047                                            1 	(obj:11)
t_x_1048                                            1 	(obj:4)
t_x_1051                                            1 	(obj:19)
t_x_1055                                            1 	(obj:9)
t_x_1058                                            1 	(obj:14)
t_x_1062                                            1 	(obj:14)
t_x_1063                                            1 	(obj:21)
t_x_1067                                            1 	(obj:1)
t_x_1069                                            1 	(obj:79)
t_x_1070                                            1 	(obj:30)
t_x_1071                                            1 	(obj:32)
t_x_1075                                            1 	(obj:13)
t_x_1076                                            1 	(obj:4)
t_x_1079                                            1 	(obj:29)
t_x_1080                                            1 	(obj:14)
t_x_1081                                            1 	(obj:61)
t_x_1087                                            1 	(obj:19)
t_x_1091                                            1 	(obj:37)
t_x_1092                                            1 	(obj:25)
t_x_1096                                            1 	(obj:30)
t_x_1097                                            1 	(obj:26)
t_x_1099                                            1 	(obj:21)
t_x_1103                                            1 	(obj:8)
t_x_1108                                            1 	(obj:2)
t_x_1110                                            1 	(obj:34)
t_x_1112                                            1 	(obj:10)
t_x_1117                                            1 	(obj:6)
t_x_1119                                            1 	(obj:6)
t_x_1124                                            1 	(obj:75)
t_x_1133                                            1 	(obj:8)
t_x_1134                                            1 	(obj:7)
t_x_1143                                            1 	(obj:9)
t_x_1158                                            1 	(obj:24)
t_x_1161                                            1 	(obj:17)
t_x_1163                                            1 	(obj:3)
t_x_1167                                            1 	(obj:17)
t_x_1168                                            1 	(obj:16)
t_x_1171                                            1 	(obj:19)
t_x_1175                                            1 	(obj:39)
t_x_1189                                            1 	(obj:8)
t_x_1192                                            1 	(obj:22)
t_x_1193                                            1 	(obj:16)
t_x_1195                                            1 	(obj:39)
t_x_1204                                            1 	(obj:20)
t_x_1205                                            1 	(obj:15)
t_x_1208                                            1 	(obj:52)
t_x_1210                                            1 	(obj:20)
t_x_1212                                            1 	(obj:14)
t_x_1216                                            1 	(obj:50)
t_x_1217                                            1 	(obj:5)
t_x_1222                                            1 	(obj:48)
t_x_1228                                            1 	(obj:15)
t_x_1235                                            1 	(obj:28)
t_x_1237                                            1 	(obj:62)
t_x_1243                                            1 	(obj:42)
t_x_1244                                            1 	(obj:45)
t_x_1246                                            1 	(obj:18)
t_x_1248                                            1 	(obj:3)
t_x_1250                                            1 	(obj:11)
t_x_1254                                            1 	(obj:37)
t_x_1257                                            1 	(obj:23)
t_x_1258                                            1 	(obj:36)
t_x_1260                                            1 	(obj:55)
t_x_1263                                            1 	(obj:27)
t_x_1269                                            1 	(obj:5)
t_x_1271                                            1 	(obj:1)
t_x_1272                                            1 	(obj:19)
t_x_1273                                            1 	(obj:7)
t_x_1274                                            1 	(obj:11)
t_x_1279                                            1 	(obj:8)
t_x_1280                                            1 	(obj:14)
t_x_1281                                            1 	(obj:19)
t_x_1282                                            1 	(obj:1)
t_x_1283                                            1 	(obj:2)
t_x_1286                                            1 	(obj:19)
t_x_1287                                            1 	(obj:11)
t_x_1289                                            1 	(obj:2)
t_x_1290                                            1 	(obj:27)
t_x_1291                                            1 	(obj:2)
t_x_1294                                            1 	(obj:37)
t_x_1303                                            1 	(obj:34)
t_x_1306                                            1 	(obj:29)
t_x_1307                                            1 	(obj:33)
t_x_1313                                            1 	(obj:23)
t_x_1317                                            1 	(obj:2)
t_x_1318                                            1 	(obj:11)
t_x_1322                                            1 	(obj:14)
t_x_1323                                            1 	(obj:27)
t_x_1326                                            1 	(obj:19)
t_x_1327                                            1 	(obj:1)
t_x_1328                                            1 	(obj:22)
t_x_1332                                            1 	(obj:51)
t_x_1334                                            1 	(obj:16)
t_x_1335                                            1 	(obj:8)
t_x_1337                                            1 	(obj:13)
t_x_1346                                            1 	(obj:2)
t_x_1347                                            1 	(obj:14)
t_x_1353                                            1 	(obj:4)
t_x_1354                                            1 	(obj:4)
t_x_1355                                            1 	(obj:29)
t_x_1356                                            1 	(obj:13)
t_x_1359                                            1 	(obj:14)
t_x_1368                                            1 	(obj:27)
t_x_1369                                            1 	(obj:44)
t_x_1370                                            1 	(obj:15)
t_x_1372                                            1 	(obj:6)
t_x_1379                                            1 	(obj:23)
t_x_1381                                            1 	(obj:6)
t_x_1384                                            1 	(obj:8)
t_x_1385                                            1 	(obj:6)
t_x_1388                                            1 	(obj:27)
t_x_1389                                            1 	(obj:2)
t_x_1391                                            1 	(obj:13)
t_x_1393                                            1 	(obj:17)
t_x_1394                                            1 	(obj:30)
t_x_1398                                            1 	(obj:16)
t_x_1400                                            1 	(obj:1)
t_x_1402                                            1 	(obj:53)
t_x_1412                                            1 	(obj:27)
t_x_1414                                            1 	(obj:25)
t_x_1417                                            1 	(obj:19)
t_x_1424                                            1 	(obj:7)
t_x_1429                                            1 	(obj:33)
t_x_1433                                            1 	(obj:10)
t_x_1437                                            1 	(obj:6)
t_x_1440                                            1 	(obj:43)
t_x_1446                                            1 	(obj:0)
t_x_1448                                            1 	(obj:18)
t_x_1461                                            1 	(obj:31)
t_x_1463                                            1 	(obj:34)
t_x_1464                                            1 	(obj:18)
t_x_1467                                            1 	(obj:55)
t_x_1468                                            1 	(obj:49)
t_x_1471                                            1 	(obj:7)
t_x_1472                                            1 	(obj:14)
t_x_1473                                            1 	(obj:25)
t_x_1481                                            1 	(obj:18)
t_x_1491                                            1 	(obj:19)
t_x_1493                                            1 	(obj:10)
t_x_1496                                            1 	(obj:18)
t_x_1503                                            1 	(obj:50)
t_x_1504                                            1 	(obj:42)
t_x_1505                                            1 	(obj:22)
t_x_1512                                            1 	(obj:47)
t_x_1513                                            1 	(obj:38)
t_x_1515                                            1 	(obj:6)
t_x_1516                                            1 	(obj:12)
t_x_1517                                            1 	(obj:1)
t_x_1519                                            1 	(obj:10)
t_x_1522                                            1 	(obj:11)
t_x_1526                                            1 	(obj:37)
t_x_1527                                            1 	(obj:30)
t_x_1528                                            1 	(obj:7)
t_x_1529                                            1 	(obj:7)
t_x_1531                                            1 	(obj:1)
t_x_1537                                            1 	(obj:44)
t_x_1538                                            1 	(obj:2)
t_x_1539                                            1 	(obj:23)
t_x_1545                                            1 	(obj:15)
t_x_1556                                            1 	(obj:25)
t_x_1561                                            1 	(obj:38)
t_x_1563                                            1 	(obj:63)
t_x_1564                                            1 	(obj:19)
t_x_1568                                            1 	(obj:3)
t_x_1569                                            1 	(obj:33)
t_x_1570                                            1 	(obj:15)
t_x_1573                                            1 	(obj:40)
t_x_1576                                            1 	(obj:11)
t_x_1580                                            1 	(obj:42)
t_x_1582                                            1 	(obj:71)
t_x_1583                                            1 	(obj:7)
t_x_1585                                            1 	(obj:5)
t_x_1586                                            1 	(obj:24)
t_x_1589                                            1 	(obj:17)
t_x_1593                                            1 	(obj:27)
t_x_1595                                            1 	(obj:16)
t_x_1596                                            1 	(obj:22)
t_x_1600                                            1 	(obj:27)
t_x_1605                                            1 	(obj:33)
t_x_1612                                            1 	(obj:21)
t_x_1616                                            1 	(obj:20)
t_x_1621                                            1 	(obj:1)
t_x_1626                                            1 	(obj:10)
t_x_1630                                            1 	(obj:57)
t_x_1632                                            1 	(obj:3)
t_x_1636                                            1 	(obj:0)
t_x_1647                                            1 	(obj:18)
t_x_1651                                            1 	(obj:16)
t_x_1652                                            1 	(obj:14)
t_x_1656                                            1 	(obj:23)
t_x_1658                                            1 	(obj:16)
t_x_1659                                            1 	(obj:29)
t_x_1663                                            1 	(obj:54)
t_x_1665                                            1 	(obj:1)
t_x_1674                                            1 	(obj:43)
t_x_1675                                            1 	(obj:11)
t_x_1682                                            1 	(obj:16)
t_x_1689                                            1 	(obj:16)
t_x_1697                                            1 	(obj:19)
t_x_1698                                            1 	(obj:4)
t_x_1702                                            1 	(obj:32)
t_x_1705                                            1 	(obj:17)
t_x_1708                                            1 	(obj:9)
t_x_1713                                            1 	(obj:12)
t_x_1714                                            1 	(obj:36)
t_x_1718                                            1 	(obj:23)
t_x_1722                                            1 	(obj:16)
t_x_1724                                            1 	(obj:39)
t_x_1730                                            1 	(obj:2)
t_x_1732                                            1 	(obj:27)
t_x_1736                                            1 	(obj:8)
t_x_1745                                            1 	(obj:54)
t_x_1747                                            1 	(obj:6)
t_x_1750                                            1 	(obj:17)
t_x_1751                                            1 	(obj:8)
t_x_1753                                            1 	(obj:2)
t_x_1763                                            1 	(obj:6)
t_x_1764                                            1 	(obj:3)
t_x_1766                                            1 	(obj:36)
t_x_1771                                            1 	(obj:42)
t_x_1776                                            1 	(obj:3)
t_x_1777                                            1 	(obj:58)
t_x_1783                                            1 	(obj:30)
t_x_1784                                            1 	(obj:20)
t_x_1786                                            1 	(obj:11)
t_x_1788                                            1 	(obj:11)
t_x_1792                                            1 	(obj:7)
t_x_1796                                            1 	(obj:10)
t_x_1800                                            1 	(obj:14)
t_x_1804                                            1 	(obj:20)
t_x_1805                                            1 	(obj:1)
t_x_1807                                            1 	(obj:9)
t_x_1820                                            1 	(obj:28)
t_x_1824                                            1 	(obj:17)
t_x_1826                                            1 	(obj:21)
t_x_1827                                            1 	(obj:21)
t_x_1835                                            1 	(obj:27)
t_x_1836                                            1 	(obj:11)
t_x_1843                                            1 	(obj:38)
t_x_1845                                            1 	(obj:6)
t_x_1846                                            1 	(obj:10)
t_x_1851                                            1 	(obj:48)
t_x_1852                                            1 	(obj:22)
t_x_1858                                            1 	(obj:20)
t_x_1859                                            1 	(obj:1)
t_x_1864                                            1 	(obj:19)
t_x_1865                                            1 	(obj:20)
t_x_1869                                            1 	(obj:31)
t_x_1873                                            1 	(obj:4)
t_x_1874                                            1 	(obj:14)
t_x_1879                                            1 	(obj:26)
t_x_1880                                            1 	(obj:28)
t_x_1883                                            1 	(obj:2)
t_x_1885                                            1 	(obj:35)
t_x_1888                                            1 	(obj:29)
t_x_1890                                            1 	(obj:37)
t_x_1893                                            1 	(obj:22)
t_x_1898                                            1 	(obj:0)
t_x_1904                                            1 	(obj:4)
t_x_1906                                            1 	(obj:52)
t_x_1907                                            1 	(obj:55)
t_x_1909                                            1 	(obj:21)
t_x_1912                                            1 	(obj:22)
t_x_1921                                            1 	(obj:3)
t_x_1923                                            1 	(obj:37)
t_x_1924                                            1 	(obj:26)
t_x_1925                                            1 	(obj:5)
t_x_1926                                            1 	(obj:9)
t_x_1927                                            1 	(obj:29)
t_x_1930                                            1 	(obj:20)
t_x_1932                                            1 	(obj:27)
t_x_1933                                            1 	(obj:14)
t_x_1936                                            1 	(obj:4)
t_x_1938                                            1 	(obj:23)
t_x_1939                                            1 	(obj:22)
t_x_1942                                            1 	(obj:41)
t_x_1944                                            1 	(obj:5)
t_x_1947                                            1 	(obj:14)
t_x_1949                                            1 	(obj:10)
t_x_1954                                            1 	(obj:5)
t_x_1956                                            1 	(obj:29)
t_x_1958                                            1 	(obj:14)
t_x_1961                                            1 	(obj:9)
t_x_1963                                            1 	(obj:29)
t_x_1967                                            1 	(obj:24)
t_x_1970                                            1 	(obj:35)
t_x_1971                                            1 	(obj:12)
t_x_1973                                            1 	(obj:12)
t_x_1974                                            1 	(obj:20)
t_x_1978                                            1 	(obj:6)
t_x_1979                                            1 	(obj:1)
t_x_1982                                            1 	(obj:2)
t_x_1983                                            1 	(obj:23)
t_x_1993                                            1 	(obj:5)
t_x_1995                                            1 	(obj:31)
t_x_1998                                            1 	(obj:62)
t_x_1999                                            1 	(obj:40)
